32      4       
10      10      10      10      
0       0       0       0       0       2       2       7       
1       0       1       1       1       2       3       9       
1       1       4       4       0       1       4       
7       7       2       4       0       1       5       
7       5       4       3       0       1       6       
9       0       4       3       2       2       8       16      
3       2       3       0       4       2       8       9       
7       4       2       0       3       2       10      13      
4       0       4       5       2       2       11      13      
1       0       7       6       3       1       11      
1       3       4       3       0       1       12      
2       2       0       6       5       1       14      
6       6       0       4       3       1       14      
4       6       7       6       0       1       15      
3       3       5       2       0       2       17      20      
8       3       4       0       3       2       17      20      
7       0       7       6       4       2       18      25      
9       8       4       0       4       1       19      
10      4       5       5       0       1       21      
6       5       3       0       8       1       21      
4       3       0       2       2       1       22      
4       0       1       1       9       2       23      31      
7       1       5       0       7       1       24      
1       5       0       6       4       2       26      28      
10      2       8       5       0       2       26      28      
5       2       1       4       0       2       27      29      
8       9       0       2       6       1       30      
9       5       3       0       1       1       29      
10      2       0       5       3       1       32      
2       4       0       3       5       1       32      
6       0       4       6       5       1       32      
0       0       0       0       0       0       
